clingo version 5.4.0
Reading from merger/Tarik/merge.lp ...
Solving...
Answer: 1
occurs(object(robot,1),action(move,(0,-1)),1). occurs(object(robot,1),action(move,(0,-1)),2). occurs(object(robot,1),action(move,(0,-1)),3). occurs(object(robot,2),action(move,(0,1)),4). occurs(object(robot,3),action(move,(0,1)),6). occurs(object(robot,3),action(move,(0,1)),7). occurs(object(robot,3),action(move,(-1,0)),9). occurs(object(robot,3),action(move,(-1,0)),10). occurs(object(robot,3),action(move,(-1,0)),11). occurs(object(robot,3),action(move,(-1,0)),12). occurs(object(robot,3),action(move,(0,1)),8). occurs(object(robot,3),action(move,(0,1)),5). occurs(object(robot,2),action(move,(-1,0)),1). occurs(object(robot,2),action(move,(1,0)),3). occurs(object(robot,2),action(move,(0,1)),5). occurs(object(robot,1),action(move,(0,-1)),5). occurs(object(robot,1),action(move,(0,1)),4). occurs(object(robot,3),action(move,(-1,0)),13). occurs(object(robot,2),action(move,(0,1)),6). occurs(object(robot,2),action(move,(0,1)),7).
Optimization: 21
Answer: 2
occurs(object(robot,1),action(move,(0,-1)),1). occurs(object(robot,1),action(move,(0,-1)),2). occurs(object(robot,1),action(move,(0,-1)),3). occurs(object(robot,2),action(move,(0,1)),4). occurs(object(robot,3),action(move,(0,1)),6). occurs(object(robot,3),action(move,(0,1)),7). occurs(object(robot,3),action(move,(-1,0)),9). occurs(object(robot,3),action(move,(-1,0)),10). occurs(object(robot,3),action(move,(-1,0)),11). occurs(object(robot,3),action(move,(-1,0)),12). occurs(object(robot,3),action(move,(0,1)),8). occurs(object(robot,3),action(move,(0,1)),5). occurs(object(robot,2),action(move,(-1,0)),1). occurs(object(robot,2),action(move,(1,0)),3). occurs(object(robot,2),action(move,(0,1)),5). occurs(object(robot,3),action(move,(-1,0)),13). occurs(object(robot,2),action(move,(0,1)),6). occurs(object(robot,2),action(move,(0,1)),7).
Optimization: 16
Answer: 3
occurs(object(robot,1),action(move,(0,-1)),1). occurs(object(robot,1),action(move,(0,-1)),2). occurs(object(robot,2),action(move,(0,1)),3). occurs(object(robot,2),action(move,(0,1)),4). occurs(object(robot,3),action(move,(0,1)),6). occurs(object(robot,3),action(move,(0,1)),7). occurs(object(robot,3),action(move,(-1,0)),9). occurs(object(robot,3),action(move,(-1,0)),10). occurs(object(robot,3),action(move,(-1,0)),11). occurs(object(robot,3),action(move,(-1,0)),12). occurs(object(robot,3),action(move,(0,1)),8). occurs(object(robot,3),action(move,(0,1)),5). occurs(object(robot,2),action(move,(0,-1)),1). occurs(object(robot,2),action(move,(0,1)),5). occurs(object(robot,1),action(move,(0,-1)),5). occurs(object(robot,1),action(move,(-1,0)),3). occurs(object(robot,3),action(move,(-1,0)),13). occurs(object(robot,2),action(move,(0,1)),6). occurs(object(robot,2),action(move,(0,1)),7). occurs(object(robot,1),action(move,(0,0)),6). occurs(object(robot,1),action(move,(1,0)),7).
Optimization: 13
Answer: 4
occurs(object(robot,1),action(move,(0,-1)),1). occurs(object(robot,1),action(move,(0,-1)),2). occurs(object(robot,2),action(move,(0,1)),3). occurs(object(robot,2),action(move,(0,1)),4). occurs(object(robot,3),action(move,(0,1)),7). occurs(object(robot,3),action(move,(-1,0)),10). occurs(object(robot,3),action(move,(-1,0)),11). occurs(object(robot,3),action(move,(-1,0)),12). occurs(object(robot,3),action(move,(0,1)),8). occurs(object(robot,3),action(move,(0,1)),9). occurs(object(robot,3),action(move,(0,1)),5). occurs(object(robot,2),action(move,(0,-1)),1). occurs(object(robot,2),action(move,(0,1)),5). occurs(object(robot,1),action(move,(0,-1)),5). occurs(object(robot,1),action(move,(-1,0)),3). occurs(object(robot,1),action(move,(1,0)),4). occurs(object(robot,3),action(move,(-1,0)),13). occurs(object(robot,2),action(move,(0,1)),6). occurs(object(robot,2),action(move,(0,1)),7). occurs(object(robot,3),action(move,(-1,0)),14).
Optimization: 12
Answer: 5
occurs(object(robot,1),action(move,(0,-1)),1). occurs(object(robot,1),action(move,(0,-1)),2). occurs(object(robot,1),action(move,(0,-1)),3). occurs(object(robot,2),action(move,(0,1)),4). occurs(object(robot,3),action(move,(0,1)),1). occurs(object(robot,3),action(move,(0,1)),3). occurs(object(robot,3),action(move,(0,1)),4). occurs(object(robot,3),action(move,(-1,0)),8). occurs(object(robot,3),action(move,(-1,0)),9). occurs(object(robot,3),action(move,(-1,0)),10). occurs(object(robot,3),action(move,(-1,0)),6). occurs(object(robot,3),action(move,(-1,0)),7). occurs(object(robot,3),action(move,(0,1)),5). occurs(object(robot,2),action(move,(-1,0)),1). occurs(object(robot,2),action(move,(1,0)),3). occurs(object(robot,2),action(move,(0,1)),5). occurs(object(robot,1),action(move,(-1,0)),4). occurs(object(robot,1),action(move,(0,1)),5). occurs(object(robot,2),action(move,(0,1)),6). occurs(object(robot,2),action(move,(0,1)),7). occurs(object(robot,1),action(move,(0,-1)),6). occurs(object(robot,1),action(move,(1,0)),7).
Optimization: 10
Answer: 6
occurs(object(robot,1),action(move,(0,-1)),1). occurs(object(robot,1),action(move,(0,-1)),2). occurs(object(robot,2),action(move,(0,1)),3). occurs(object(robot,2),action(move,(0,1)),4). occurs(object(robot,3),action(move,(0,1)),4). occurs(object(robot,3),action(move,(0,1)),6). occurs(object(robot,3),action(move,(0,1)),7). occurs(object(robot,3),action(move,(-1,0)),10). occurs(object(robot,3),action(move,(-1,0)),11). occurs(object(robot,3),action(move,(-1,0)),12). occurs(object(robot,3),action(move,(0,1)),8). occurs(object(robot,3),action(move,(0,1)),9). occurs(object(robot,3),action(move,(0,-1)),5). occurs(object(robot,2),action(move,(0,-1)),1). occurs(object(robot,2),action(move,(0,1)),5). occurs(object(robot,1),action(move,(0,0)),4). occurs(object(robot,1),action(move,(-1,0)),3). occurs(object(robot,1),action(move,(1,0)),5). occurs(object(robot,3),action(move,(-1,0)),13). occurs(object(robot,2),action(move,(0,1)),6). occurs(object(robot,2),action(move,(0,1)),7). occurs(object(robot,3),action(move,(-1,0)),14). occurs(object(robot,1),action(move,(0,-1)),7).
Optimization: 7
OPTIMUM FOUND

Models       : 6
  Optimum    : yes
Optimization : 7
Calls        : 1
Time         : 0.198s (Solving: 0.03s 1st Model: 0.01s Unsat: 0.00s)
CPU Time     : 0.191s
